rc1_10_9

VEHICLE
NUMBER   CAPACITY
250     200

CUSTOMER
CUST NO. XCOORD.  YCOORD.  DEMAND  READY TIME DUE DATE  SERVICE TIME

0   250    250     0     0    1821     0
818 133 273 20 119 239 10
7 133 202 33 416 536 10
6 175 239 23 75 195 10
476 176 199 28 89 209 10
979 131 246 17 787 907 10
955 153 235 10 98 218 10
508 134 211 35 122 242 10
799 146 188 6 1190 1310 10
562 120 261 5 748 868 10
189 149 214 7 437 557 10
302 157 269 31 1531 1651 10
199 148 208 22 481 601 10
817 130 247 17 120 240 10
538 166 247 1 84 204 10
